NAME : in_house_9_2
TYPE : TSP
DIMENSION : 9
EDGE_WEIGHT_TYPE : EXPLICIT
EDGE_WEIGHT_FORMAT : UPPER_ROW
COMMENT : INVERSION_SHIFT=6
EDGE_WEIGHT_SECTION
50
64
20
74
38
9
20
53
73
27
53
43
51
66
55
9
67
1
31
21
36
53
72
42
31
19
79
51
3
24
13
49
39
68
81
51
